0   0
0   1080
0   2160
0   3240
1280   0
1280   1080
1280   2160
1280   3240
2560   0
2560   1080
2560   2160
2560   3240
3840   0
3840   1080
3840   2160
3840   3240
5120   0
5120   1080
5120   2160
5120   3240
6400   0
6400   1080
6400   2160
6400   3240
